p tw 40 84
0 1
0 6
0 27
0 34
0 16
1 6
1 35
2 3
2 4
2 25
2 7
3 13
3 5
3 20
3 21
3 36
3 9
4 5
4 28
4 21
5 29
5 38
5 7
5 26
6 16
6 19
7 8
7 32
7 9
7 24
9 10
9 16
9 27
9 23
9 35
9 34
10 13
11 12
11 18
11 34
12 20
12 35
13 15
14 15
14 18
15 16
15 24
16 17
16 33
16 27
16 24
16 34
16 31
16 21
18 19
18 31
18 26
18 27
18 23
19 24
19 30
19 31
20 25
20 38
20 39
21 22
21 29
22 29
23 24
23 29
23 35
24 30
24 34
24 32
25 26
25 30
27 28
27 31
28 37
29 32
29 30
30 37
31 38
38 39
